proyfinal/src/viki/013/experimentInOfficeAgust.take6.output/f93ad65e-1c8e-4899-9212-a7f421be9baf.als.out
Reading from standard input... Use '--help' for help.
============================[ Problem Statistics ]=============================
|                                                                             |
|  Number of variables:         87638                                         |
|  Number of clauses:          161767                                         |
|  Parse time:                   0.04 s                                       |
|                                                                             |
============================[ Search Statistics ]==============================
| Conflicts |          ORIGINAL         |          LEARNT          | Progress |
|           |    Vars  Clauses Literals |    Limit  Clauses Lit/Cl |          |
===============================================================================
|       100 |   63216   108253   270374 |    39692      100     10 | 27.867 % |
|       250 |   63171   108088   269938 |    43662      238     41 | 27.918 % |
|       475 |   63083   107980   269691 |    48028      456     49 | 28.019 % |
|       812 |   63030   107522   268573 |    52831      768     58 | 28.079 % |
|      1318 |   55597    85012   213104 |    58114     1191     48 | 36.561 % |
|      2077 |   55541    84796   212513 |    63925     1938     46 | 36.625 % |
|      3216 |   54703    81874   204944 |    70318     2936     48 | 37.581 % |
|      4924 |   54067    79254   198685 |    77349     4469     55 | 38.306 % |
|      7486 |   53811    78189   196143 |    85084     6898     55 | 38.599 % |
|     11330 |   53718    77778   195194 |    93593    10322     57 | 38.705 % |
|     17096 |   53562    77192   193826 |   102952    15706     58 | 38.883 % |
===============================================================================
restarts              : 66
conflicts             : 19485          (9181 /sec)
decisions             : 65938          (0.00 % random) (31068 /sec)
propagations          : 22402266       (10555386 /sec)
conflict literals     : 1090816        (44.29 % deleted)
Memory used           : 33.23 MB
CPU time              : 2.12235 s

UNSATISFIABLE
